NAME : local_13
TYPE : ATSP
DIMENSION : 6
EDGE_WEIGHT_TYPE : EXPLICIT
EDGE_WEIGHT_FORMAT : FULL_MATRIX
EDGE_WEIGHT_SECTION
0 556 800 10000000 10000000 746 
0 0 10000000 10000000 10000000 10000000 
0 10000000 0 520 769 377 
0 10000000 520 0 365 540 
0 10000000 769 365 0 585 
0 10000000 10000000 10000000 10000000 0 
EOF